encoding rcpsp/j60.sm/j6017_3.sm nv: 136136 nc: 344311 enctime: 3.34
encoding rcpsp/j60.sm/j6017_3.sm nv: 37774 nc: 93409 enctime: 0.54
c File: j6017_3.smnaive.wcnf
c optimal
c final solution cost: 89
c CPU time: 1.309241
s OPTIMUM FOUND

c File: j6017_3.sm.wcnf
c optimal
c final solution cost: 89
c CPU time: 0.200542
s OPTIMUM FOUND


encoding rcpsp/j60.sm/j6017_4.sm nv: 113526 nc: 268258 enctime: 2.42
encoding rcpsp/j60.sm/j6017_4.sm nv: 29680 nc: 68474 enctime: 0.40
c File: j6017_4.smnaive.wcnf
c optimal
c final solution cost: 71
c CPU time: 0.646995
s OPTIMUM FOUND

c File: j6017_4.sm.wcnf
c optimal
c final solution cost: 71
c CPU time: 0.112817
s OPTIMUM FOUND


encoding rcpsp/j60.sm/j6017_5.sm nv: 115368 nc: 259219 enctime: 2.18
encoding rcpsp/j60.sm/j6017_5.sm nv: 27588 nc: 60559 enctime: 0.35
c File: j6017_5.smnaive.wcnf
c optimal
c final solution cost: 59
c CPU time: 3.981707
s OPTIMUM FOUND

c File: j6017_5.sm.wcnf
c optimal
c final solution cost: 59
c CPU time: 0.140003
s OPTIMUM FOUND


encoding rcpsp/j60.sm/j6017_6.sm nv: 123968 nc: 285728 enctime: 2.54
encoding rcpsp/j60.sm/j6017_6.sm nv: 33280 nc: 75140 enctime: 0.44
c File: j6017_6.smnaive.wcnf
c optimal
c final solution cost: 69
c CPU time: 3.867016
s OPTIMUM FOUND

c File: j6017_6.sm.wcnf
c optimal
c final solution cost: 69
c CPU time: 0.141155
s OPTIMUM FOUND


encoding rcpsp/j60.sm/j6017_7.sm nv: 128880 nc: 324423 enctime: 3.19
encoding rcpsp/j60.sm/j6017_7.sm nv: 35640 nc: 87697 enctime: 0.53
c File: j6017_7.smnaive.wcnf
c optimal
c final solution cost: 83
c CPU time: 2.192959
s OPTIMUM FOUND

c File: j6017_7.sm.wcnf
c optimal
c final solution cost: 83
c CPU time: 0.191820
s OPTIMUM FOUND


encoding rcpsp/j60.sm/j6017_8.sm nv: 119160 nc: 295050 enctime: 2.84
encoding rcpsp/j60.sm/j6017_8.sm nv: 32760 nc: 79290 enctime: 0.47
c File: j6017_8.smnaive.wcnf
c optimal
c final solution cost: 85
c CPU time: 6.484934
s OPTIMUM FOUND

c File: j6017_8.sm.wcnf
c optimal
c final solution cost: 85
c CPU time: 0.792766
s OPTIMUM FOUND


encoding rcpsp/j60.sm/j6017_9.sm nv: 112081 nc: 276939 enctime: 2.63
encoding rcpsp/j60.sm/j6017_9.sm nv: 28107 nc: 67609 enctime: 0.41
c File: j6017_9.smnaive.wcnf
c optimal
c final solution cost: 76
c CPU time: 3.771150
s OPTIMUM FOUND

c File: j6017_9.sm.wcnf
c optimal
c final solution cost: 76
c CPU time: 0.101318
s OPTIMUM FOUND


encoding rcpsp/j60.sm/j601_7.sm nv: 122436 nc: 295708 enctime: 2.64
encoding rcpsp/j60.sm/j601_7.sm nv: 28282 nc: 66372 enctime: 0.28
c File: j601_7.smnaive.wcnf
c optimal
c final solution cost: 72
c CPU time: 1.896180
s OPTIMUM FOUND

c File: j601_7.sm.wcnf
c optimal
c final solution cost: 72
c CPU time: 0.268776
s OPTIMUM FOUND


encoding rcpsp/j60.sm/j6018_10.sm nv: 173568 nc: 423447 enctime: 4.18
encoding rcpsp/j60.sm/j6018_10.sm nv: 46556 nc: 111256 enctime: 0.65
c File: j6018_10.smnaive.wcnf
c optimal
c final solution cost: 97
c CPU time: 0.927523
s OPTIMUM FOUND

c File: j6018_10.sm.wcnf
c optimal
c final solution cost: 97
c CPU time: 0.117839
s OPTIMUM FOUND


encoding rcpsp/j60.sm/j6018_1.sm nv: 139527 nc: 329719 enctime: 3.03
encoding rcpsp/j60.sm/j6018_1.sm nv: 37291 nc: 86207 enctime: 0.51
c File: j6018_1.smnaive.wcnf
c optimal
c final solution cost: 81
c CPU time: 1.027535
s OPTIMUM FOUND

c File: j6018_1.sm.wcnf
c optimal
c final solution cost: 81
c CPU time: 0.095501
s OPTIMUM FOUND


encoding rcpsp/j60.sm/j6018_2.sm nv: 167670 nc: 391220 enctime: 3.65
encoding rcpsp/j60.sm/j6018_2.sm nv: 34506 nc: 78312 enctime: 0.47
c File: j6018_2.smnaive.wcnf
c optimal
c final solution cost: 69
c CPU time: 0.808901
s OPTIMUM FOUND

c File: j6018_2.sm.wcnf
c optimal
c final solution cost: 69
c CPU time: 0.080521
s OPTIMUM FOUND


encoding rcpsp/j60.sm/j6018_3.sm nv: 138993 nc: 324095 enctime: 2.91
encoding rcpsp/j60.sm/j6018_3.sm nv: 33774 nc: 76964 enctime: 0.45
c File: j6018_3.smnaive.wcnf
c optimal
c final solution cost: 77
c CPU time: 0.719899
s OPTIMUM FOUND

c File: j6018_3.sm.wcnf
c optimal
c final solution cost: 77
c CPU time: 0.077781
s OPTIMUM FOUND


encoding rcpsp/j60.sm/j6018_4.sm nv: 171308 nc: 416862 enctime: 4.00
encoding rcpsp/j60.sm/j6018_4.sm nv: 36612 nc: 86678 enctime: 0.52
c File: j6018_4.smnaive.wcnf
c optimal
c final solution cost: 71
c CPU time: 0.948944
s OPTIMUM FOUND

c File: j6018_4.sm.wcnf
c optimal
c final solution cost: 71
c CPU time: 0.111054
s OPTIMUM FOUND


encoding rcpsp/j60.sm/j6018_5.sm nv: 141036 nc: 327968 enctime: 2.97
encoding rcpsp/j60.sm/j6018_5.sm nv: 36354 nc: 82754 enctime: 0.50
c File: j6018_5.smnaive.wcnf
c optimal
c final solution cost: 80
c CPU time: 0.761753
s OPTIMUM FOUND

c File: j6018_5.sm.wcnf
c optimal
c final solution cost: 80
c CPU time: 0.092112
s OPTIMUM FOUND


encoding rcpsp/j60.sm/j6018_6.sm nv: 155685 nc: 353646 enctime: 3.17
encoding rcpsp/j60.sm/j6018_6.sm nv: 30555 nc: 67524 enctime: 0.41
c File: j6018_6.smnaive.wcnf
c optimal
c final solution cost: 61
c CPU time: 0.721164
s OPTIMUM FOUND

c File: j6018_6.sm.wcnf
c optimal
c final solution cost: 61
c CPU time: 0.066458
s OPTIMUM FOUND


encoding rcpsp/j60.sm/j6018_7.sm nv: 145820 nc: 333720 enctime: 2.93
encoding rcpsp/j60.sm/j6018_7.sm nv: 43240 nc: 97340 enctime: 0.68
c File: j6018_7.smnaive.wcnf
c optimal
c final solution cost: 93
c CPU time: 8.257676
s OPTIMUM FOUND

c File: j6018_7.sm.wcnf
c optimal
c final solution cost: 93
c CPU time: 0.122961
s OPTIMUM FOUND


encoding rcpsp/j60.sm/j6018_8.sm nv: 151970 nc: 357108 enctime: 3.27
encoding rcpsp/j60.sm/j6018_8.sm nv: 36855 nc: 84627 enctime: 0.50
c File: j6018_8.smnaive.wcnf
c optimal
c final solution cost: 78
c CPU time: 0.826943
s OPTIMUM FOUND

c File: j6018_8.sm.wcnf
c optimal
c final solution cost: 78
c CPU time: 0.087467
s OPTIMUM FOUND


encoding rcpsp/j60.sm/j6018_9.sm nv: 138689 nc: 327094 enctime: 2.97
encoding rcpsp/j60.sm/j6018_9.sm nv: 29330 nc: 67138 enctime: 0.40
c File: j6018_9.smnaive.wcnf
c optimal
c final solution cost: 69
c CPU time: 0.730574
s OPTIMUM FOUND

c File: j6018_9.sm.wcnf
c optimal
c final solution cost: 69
c CPU time: 0.072964
s OPTIMUM FOUND


encoding rcpsp/j60.sm/j601_8.sm nv: 135772 nc: 334634 enctime: 2.99
encoding rcpsp/j60.sm/j601_8.sm nv: 29840 nc: 71366 enctime: 0.41
c File: j601_8.smnaive.wcnf
c optimal
c final solution cost: 75
c CPU time: 1.768783
s OPTIMUM FOUND

c File: j601_8.sm.wcnf
c optimal
c final solution cost: 75
c CPU time: 0.118659
s OPTIMUM FOUND


encoding rcpsp/j60.sm/j6019_10.sm nv: 188720 nc: 427764 enctime: 3.76
encoding rcpsp/j60.sm/j6019_10.sm nv: 45360 nc: 100852 enctime: 0.58
c File: j6019_10.smnaive.wcnf
c optimal
c final solution cost: 78
c CPU time: 0.812026
s OPTIMUM FOUND

c File: j6019_10.sm.wcnf
c optimal
c final solution cost: 78
c CPU time: 0.099674
s OPTIMUM FOUND


encoding rcpsp/j60.sm/j6019_1.sm nv: 179958 nc: 406885 enctime: 3.67
encoding rcpsp/j60.sm/j6019_1.sm nv: 34176 nc: 75190 enctime: 0.45
c File: j6019_1.smnaive.wcnf
c optimal
c final solution cost: 62
c CPU time: 0.800833
s OPTIMUM FOUND

c File: j6019_1.sm.wcnf
c optimal
c final solution cost: 62
c CPU time: 0.073454
s OPTIMUM FOUND


encoding rcpsp/j60.sm/j6019_2.sm nv: 188123 nc: 448516 enctime: 4.23
encoding rcpsp/j60.sm/j6019_2.sm nv: 41916 nc: 97502 enctime: 0.57
c File: j6019_2.smnaive.wcnf
c optimal
c final solution cost: 83
c CPU time: 0.973288
s OPTIMUM FOUND

c File: j6019_2.sm.wcnf
c optimal
c final solution cost: 83
c CPU time: 0.097264
s OPTIMUM FOUND


encoding rcpsp/j60.sm/j6019_3.sm nv: 163917 nc: 383349 enctime: 3.54
encoding rcpsp/j60.sm/j6019_3.sm nv: 39228 nc: 89649 enctime: 0.52
c File: j6019_3.smnaive.wcnf
c optimal
c final solution cost: 83
c CPU time: 0.877360
s OPTIMUM FOUND

c File: j6019_3.sm.wcnf
c optimal
c final solution cost: 83
c CPU time: 0.104889
s OPTIMUM FOUND


encoding rcpsp/j60.sm/j6019_4.sm nv: 186296 nc: 411632 enctime: 3.51
encoding rcpsp/j60.sm/j6019_4.sm nv: 39712 nc: 85834 enctime: 0.51
c File: j6019_4.smnaive.wcnf
c optimal
c final solution cost: 67
c CPU time: 0.781892
s OPTIMUM FOUND

c File: j6019_4.sm.wcnf
c optimal
c final solution cost: 67
c CPU time: 0.077186
s OPTIMUM FOUND


encoding rcpsp/j60.sm/j6019_5.sm nv: 157740 nc: 365044 enctime: 3.27
encoding rcpsp/j60.sm/j6019_5.sm nv: 36806 nc: 83202 enctime: 0.50
c File: j6019_5.smnaive.wcnf
c optimal
c final solution cost: 73
c CPU time: 0.740779
s OPTIMUM FOUND

c File: j6019_5.sm.wcnf
c optimal
c final solution cost: 73
c CPU time: 0.086750
s OPTIMUM FOUND


encoding rcpsp/j60.sm/j6019_6.sm nv: 168756 nc: 390791 enctime: 3.52
encoding rcpsp/j60.sm/j6019_6.sm nv: 34932 nc: 78807 enctime: 0.47
c File: j6019_6.smnaive.wcnf
c optimal
c final solution cost: 69
c CPU time: 0.923501
s OPTIMUM FOUND

c File: j6019_6.sm.wcnf
c optimal
c final solution cost: 69
c CPU time: 0.091600
s OPTIMUM FOUND


encoding rcpsp/j60.sm/j6019_7.sm nv: 175380 nc: 387349 enctime: 3.28
encoding rcpsp/j60.sm/j6019_7.sm nv: 33855 nc: 72934 enctime: 0.44
c File: j6019_7.smnaive.wcnf
c optimal
c final solution cost: 60
c CPU time: 0.759548
s OPTIMUM FOUND

c File: j6019_7.sm.wcnf
c optimal
c final solution cost: 60
c CPU time: 0.070382
s OPTIMUM FOUND


encoding rcpsp/j60.sm/j6019_8.sm nv: 154380 nc: 356732 enctime: 3.28
encoding rcpsp/j60.sm/j6019_8.sm nv: 40920 nc: 92724 enctime: 0.55
c File: j6019_8.smnaive.wcnf
c optimal
c final solution cost: 87
c CPU time: 0.781914
s OPTIMUM FOUND

c File: j6019_8.sm.wcnf
c optimal
c final solution cost: 87
c CPU time: 0.106885
s OPTIMUM FOUND


encoding rcpsp/j60.sm/j6019_9.sm nv: 177500 nc: 409687 enctime: 3.74
encoding rcpsp/j60.sm/j6019_9.sm nv: 37000 nc: 83165 enctime: 0.49
c File: j6019_9.smnaive.wcnf
c optimal
c final solution cost: 69
c CPU time: 1.226791
s OPTIMUM FOUND

c File: j6019_9.sm.wcnf
c optimal
c final solution cost: 69
c CPU time: 0.113636
s OPTIMUM FOUND


encoding rcpsp/j60.sm/j601_9.sm nv: 128625 nc: 310969 enctime: 2.73
encoding rcpsp/j60.sm/j601_9.sm nv: 36000 nc: 85211 enctime: 0.48
c File: j601_9.smnaive.wcnf
c optimal
c final solution cost: 85
c CPU time: 0.761650
s OPTIMUM FOUND

c File: j601_9.sm.wcnf
c optimal
c final solution cost: 85
c CPU time: 0.128803
s OPTIMUM FOUND


encoding rcpsp/j60.sm/j6020_10.sm nv: 181485 nc: 405317 enctime: 3.57
encoding rcpsp/j60.sm/j6020_10.sm nv: 39405 nc: 86085 enctime: 0.51
c File: j6020_10.smnaive.wcnf
c optimal
c final solution cost: 70
c CPU time: 0.763798
s OPTIMUM FOUND

c File: j6020_10.sm.wcnf
c optimal
c final solution cost: 70
c CPU time: 0.077128
s OPTIMUM FOUND


encoding rcpsp/j60.sm/j6020_1.sm nv: 205800 nc: 455954 enctime: 3.93
encoding rcpsp/j60.sm/j6020_1.sm nv: 36600 nc: 78920 enctime: 0.48
c File: j6020_1.smnaive.wcnf
c optimal
c final solution cost: 60
c CPU time: 0.833398
s OPTIMUM FOUND

c File: j6020_1.sm.wcnf
c optimal
c final solution cost: 60
c CPU time: 0.068586
s OPTIMUM FOUND


encoding rcpsp/j60.sm/j6020_2.sm nv: 136697 nc: 304076 enctime: 2.66
encoding rcpsp/j60.sm/j6020_2.sm nv: 37367 nc: 81686 enctime: 0.48
c File: j6020_2.smnaive.wcnf
c optimal
c final solution cost: 78
c CPU time: 0.587899
s OPTIMUM FOUND

c File: j6020_2.sm.wcnf
c optimal
c final solution cost: 78
c CPU time: 0.078844
s OPTIMUM FOUND


encoding rcpsp/j60.sm/j6020_3.sm nv: 226501 nc: 499744 enctime: 4.33
encoding rcpsp/j60.sm/j6020_3.sm nv: 45430 nc: 97984 enctime: 0.44
c File: j6020_3.smnaive.wcnf
c optimal
c final solution cost: 69
c CPU time: 0.906193
s OPTIMUM FOUND

c File: j6020_3.sm.wcnf
c optimal
c final solution cost: 69
c CPU time: 0.085709
s OPTIMUM FOUND


encoding rcpsp/j60.sm/j6020_4.sm nv: 221028 nc: 483501 enctime: 4.21
encoding rcpsp/j60.sm/j6020_4.sm nv: 56724 nc: 122133 enctime: 0.71
c File: j6020_4.smnaive.wcnf
c optimal
c final solution cost: 86
c CPU time: 0.866977
s OPTIMUM FOUND

c File: j6020_4.sm.wcnf
c optimal
c final solution cost: 86
c CPU time: 0.115672
s OPTIMUM FOUND


encoding rcpsp/j60.sm/j6020_5.sm nv: 187824 nc: 425244 enctime: 3.83
encoding rcpsp/j60.sm/j6020_5.sm nv: 39312 nc: 86876 enctime: 0.39
c File: j6020_5.smnaive.wcnf
c optimal
c final solution cost: 71
c CPU time: 0.824373
s OPTIMUM FOUND

c File: j6020_5.sm.wcnf
c optimal
c final solution cost: 71
c CPU time: 0.078037
s OPTIMUM FOUND


encoding rcpsp/j60.sm/j6020_6.sm nv: 210858 nc: 468817 enctime: 4.12
encoding rcpsp/j60.sm/j6020_6.sm nv: 60956 nc: 133586 enctime: 0.79
c File: j6020_6.smnaive.wcnf
c optimal
c final solution cost: 97
c CPU time: 0.897361
s OPTIMUM FOUND

c File: j6020_6.sm.wcnf
c optimal
c final solution cost: 97
c CPU time: 0.141105
s OPTIMUM FOUND


encoding rcpsp/j60.sm/j6020_7.sm nv: 209902 nc: 464718 enctime: 3.97
encoding rcpsp/j60.sm/j6020_7.sm nv: 47850 nc: 104038 enctime: 0.63
c File: j6020_7.smnaive.wcnf
c optimal
c final solution cost: 74
c CPU time: 0.810539
s OPTIMUM FOUND

c File: j6020_7.sm.wcnf
c optimal
c final solution cost: 74
c CPU time: 0.093869
s OPTIMUM FOUND


encoding rcpsp/j60.sm/j6020_8.sm nv: 178856 nc: 392621 enctime: 3.41
encoding rcpsp/j60.sm/j6020_8.sm nv: 37356 nc: 80121 enctime: 0.48
c File: j6020_8.smnaive.wcnf
c optimal
c final solution cost: 65
c CPU time: 0.735887
s OPTIMUM FOUND

c File: j6020_8.sm.wcnf
c optimal
c final solution cost: 65
c CPU time: 0.073531
s OPTIMUM FOUND


encoding rcpsp/j60.sm/j6020_9.sm nv: 180411 nc: 422475 enctime: 3.85
encoding rcpsp/j60.sm/j6020_9.sm nv: 37275 nc: 84939 enctime: 0.50
c File: j6020_9.smnaive.wcnf
c optimal
c final solution cost: 74
c CPU time: 0.878917
s OPTIMUM FOUND

c File: j6020_9.sm.wcnf
c optimal
c final solution cost: 74
c CPU time: 0.077026
s OPTIMUM FOUND


